100
30
26
7
11
20
30
19
3
8
31
19
8
19
11
7
6
8
19
32
30
30
22
25
15
11
2
18
20
22
22
29
29
5
31
13
16
8
3
4
27
13
23
1
29
27
14
27
27
12
21
28
11
12
11
26
30
25
23
1
19
11
21
22
31
24
1
22
20
6
21
32
23
14
14
24
6
26
11
28
16
7
26
31
23
23
25
21
10
20
4
3
25
12
16
5
2
13
15
3
25
22